solution status: optimal solution found
objective value:                     252376.787418287
d11(0,0)                                            1 	(obj:0)
d11(1,1)                                            1 	(obj:0)
d11(1,2)                                            1 	(obj:0)
d11(2,3)                                            1 	(obj:0)
d11(2,5)                                            1 	(obj:0)
d11(3,7)                                            1 	(obj:0)
d11(3,8)                                            1 	(obj:0)
d11(3,9)                                            1 	(obj:0)
d11(3,10)                                           1 	(obj:0)
d11(3,11)                                           1 	(obj:0)
d11(3,13)                                           1 	(obj:0)
d11(3,14)                                           1 	(obj:0)
d11(4,15)                                           1 	(obj:0)
d11(4,17)                                           1 	(obj:0)
d11(4,19)                                           1 	(obj:0)
d11(4,21)                                           1 	(obj:0)
d11(4,23)                                           1 	(obj:0)
d11(4,25)                                           1 	(obj:0)
d11(4,27)                                           1 	(obj:0)
d11(4,28)                                           1 	(obj:0)
d11(4,29)                                           1 	(obj:0)
d11(5,31)                                           1 	(obj:0)
d11(5,32)                                           1 	(obj:0)
d11(5,33)                                           1 	(obj:0)
d11(5,35)                                           1 	(obj:0)
d11(5,36)                                           1 	(obj:0)
d11(5,37)                                           1 	(obj:0)
d11(5,38)                                           1 	(obj:0)
d11(5,39)                                           1 	(obj:0)
d11(5,41)                                           1 	(obj:0)
d11(5,43)                                           1 	(obj:0)
d11(5,44)                                           1 	(obj:0)
d11(5,45)                                           1 	(obj:0)
d11(5,47)                                           1 	(obj:0)
d11(5,49)                                           1 	(obj:0)
d11(5,50)                                           1 	(obj:0)
d11(5,51)                                           1 	(obj:0)
d11(5,52)                                           1 	(obj:0)
d11(5,53)                                           1 	(obj:0)
d11(5,55)                                           1 	(obj:0)
d11(5,57)                                           1 	(obj:0)
d11(5,58)                                           1 	(obj:0)
d11(5,59)                                           1 	(obj:0)
d11(5,60)                                           1 	(obj:0)
d11(5,61)                                           1 	(obj:0)
d11(5,62)                                           1 	(obj:0)
d11(6,63)                                           1 	(obj:0)
d11(6,64)                                           1 	(obj:0)
d11(6,65)                                           1 	(obj:0)
d11(6,66)                                           1 	(obj:0)
d11(6,67)                                           1 	(obj:0)
d11(6,68)                                           1 	(obj:0)
d11(6,69)                                           1 	(obj:0)
d11(6,70)                                           1 	(obj:0)
d11(6,71)                                           1 	(obj:0)
d11(6,72)                                           1 	(obj:0)
d11(6,73)                                           1 	(obj:0)
d11(6,74)                                           1 	(obj:0)
d11(6,75)                                           1 	(obj:0)
d11(6,76)                                           1 	(obj:0)
d11(6,77)                                           1 	(obj:0)
d11(6,78)                                           1 	(obj:0)
d11(6,79)                                           1 	(obj:0)
d11(6,80)                                           1 	(obj:0)
d11(6,81)                                           1 	(obj:0)
d11(6,82)                                           1 	(obj:0)
d11(6,83)                                           1 	(obj:0)
d11(6,85)                                           1 	(obj:0)
d11(6,86)                                           1 	(obj:0)
d11(6,87)                                           1 	(obj:0)
d11(6,88)                                           1 	(obj:0)
d11(6,89)                                           1 	(obj:0)
d11(6,90)                                           1 	(obj:0)
d11(6,91)                                           1 	(obj:0)
d11(6,92)                                           1 	(obj:0)
d11(6,93)                                           1 	(obj:0)
d11(6,94)                                           1 	(obj:0)
d11(6,95)                                           1 	(obj:0)
d11(6,96)                                           1 	(obj:0)
d11(6,97)                                           1 	(obj:0)
d11(6,98)                                           1 	(obj:0)
d11(6,99)                                           1 	(obj:0)
d11(6,100)                                          1 	(obj:0)
d11(6,101)                                          1 	(obj:0)
d11(6,102)                                          1 	(obj:0)
d11(6,103)                                          1 	(obj:0)
d11(6,104)                                          1 	(obj:0)
d11(6,105)                                          1 	(obj:0)
d11(6,106)                                          1 	(obj:0)
d11(6,107)                                          1 	(obj:0)
d11(6,108)                                          1 	(obj:0)
d11(6,109)                                          1 	(obj:0)
d11(6,110)                                          1 	(obj:0)
d11(6,111)                                          1 	(obj:0)
d11(6,112)                          0.999999999999995 	(obj:0)
d11(6,113)                                          1 	(obj:0)
d11(6,114)                                          1 	(obj:0)
d11(6,115)                                          1 	(obj:0)
d11(6,116)                                          1 	(obj:0)
d11(6,117)                                          1 	(obj:0)
d11(6,118)                                          1 	(obj:0)
d11(6,119)                                          1 	(obj:0)
d11(6,120)                                          1 	(obj:0)
d11(6,121)                                          1 	(obj:0)
d11(6,122)                                          1 	(obj:0)
d11(6,123)                                          1 	(obj:0)
d11(6,124)                                          1 	(obj:0)
d11(6,125)                                          1 	(obj:0)
d11(6,126)                                          1 	(obj:0)
d21(5,31)                                           1 	(obj:0)
d21(5,32)                                           1 	(obj:0)
d21(5,33)                                           1 	(obj:0)
d21(5,35)                                           1 	(obj:0)
d21(5,39)                                           1 	(obj:0)
d21(5,47)                                           1 	(obj:0)
d21(6,63)                                           1 	(obj:0)
d21(6,64)                                           1 	(obj:0)
d21(6,65)                                           1 	(obj:0)
d21(6,66)                                           1 	(obj:0)
d21(6,67)                                           1 	(obj:0)
d21(6,68)                                           1 	(obj:0)
d21(6,69)                                           1 	(obj:0)
d21(6,70)                                           1 	(obj:0)
d21(6,71)                                           1 	(obj:0)
d21(6,72)                                           1 	(obj:0)
d21(6,73)                                           1 	(obj:0)
d21(6,74)                                           1 	(obj:0)
d21(6,75)                                           1 	(obj:0)
d21(6,77)                                           1 	(obj:0)
d21(6,79)                                           1 	(obj:0)
d21(6,80)                                           1 	(obj:0)
d21(6,81)                                           1 	(obj:0)
d21(6,82)                                           1 	(obj:0)
d21(6,83)                                           1 	(obj:0)
d21(6,84)                            1.00000000000001 	(obj:0)
d21(6,85)                                           1 	(obj:0)
d21(6,87)                                           1 	(obj:0)
d21(6,95)                                           1 	(obj:0)
d21(6,96)                                           1 	(obj:0)
d21(6,97)                                           1 	(obj:0)
d21(6,98)                                           1 	(obj:0)
d21(6,99)                                           1 	(obj:0)
d21(6,103)                                          1 	(obj:0)
d21(6,111)                                          1 	(obj:0)
STE(1,1)                             12766.4997977778 	(obj:0)
STE(0,0)                                        15750 	(obj:0)
STE(1,2)                             14424.7496966666 	(obj:0)
STE(2,3)                             9848.24989888886 	(obj:0)
STE(2,4)                             11506.4997977778 	(obj:0)
STE(2,5)                             11506.4997977777 	(obj:0)
STE(2,6)                             13164.7496966666 	(obj:0)
STE(3,7)                             6929.99999999999 	(obj:0)
STE(3,8)                             8588.24989888893 	(obj:0)
STE(3,9)                             8588.24989888889 	(obj:0)
STE(3,10)                            10246.4997977778 	(obj:0)
STE(3,11)                            8588.24989888881 	(obj:0)
STE(3,12)                            10246.4997977777 	(obj:0)
STE(3,13)                            10246.4997977777 	(obj:0)
STE(3,14)                            11904.7496966666 	(obj:0)
STE(4,15)                            4011.75010111117 	(obj:0)
STE(4,16)                            5669.99999999999 	(obj:0)
STE(4,17)                             5670.0000000001 	(obj:0)
STE(4,18)                            7328.24989888893 	(obj:0)
STE(4,19)                            5670.00000000006 	(obj:0)
STE(4,20)                            7328.24989888889 	(obj:0)
STE(4,21)                            7328.24989888893 	(obj:0)
STE(4,22)                            8986.49979777775 	(obj:0)
STE(4,23)                            5669.99999999998 	(obj:0)
STE(4,24)                            7328.24989888881 	(obj:0)
STE(4,25)                            7328.24989888885 	(obj:0)
STE(4,26)                            8986.49979777768 	(obj:0)
STE(4,27)                            7328.24989888887 	(obj:0)
STE(4,28)                            8986.49979777757 	(obj:0)
STE(4,29)                            8986.49979777774 	(obj:0)
STE(4,30)                            10644.7496966666 	(obj:0)
STE(5,31)                            1093.50020221699 	(obj:0)
STE(5,32)                            2751.75010110581 	(obj:0)
STE(5,33)                            2751.75010110582 	(obj:0)
STE(5,34)                            4409.99999999999 	(obj:0)
STE(5,35)                            2751.75010110592 	(obj:0)
STE(5,36)                            4409.99999999474 	(obj:0)
STE(5,37)                            4409.99999999475 	(obj:0)
STE(5,38)                            6068.24989888357 	(obj:0)
STE(5,39)                            2751.75010110588 	(obj:0)
STE(5,40)                            4410.00000000006 	(obj:0)
STE(5,41)                            4409.99999999471 	(obj:0)
STE(5,42)                            6068.24989888889 	(obj:0)
STE(5,43)                            4409.99999999475 	(obj:0)
STE(5,44)                            6068.24989888357 	(obj:0)
STE(5,45)                            6068.24989888358 	(obj:0)
STE(5,46)                            7726.49979777776 	(obj:0)
STE(5,47)                            2751.75010110581 	(obj:0)
STE(5,48)                            4409.99999999998 	(obj:0)
STE(5,49)                            4409.99999999463 	(obj:0)
STE(5,50)                            6068.24989888881 	(obj:0)
STE(5,51)                            4409.99999999468 	(obj:0)
STE(5,52)                             6068.2498988835 	(obj:0)
STE(5,53)                            6068.24989888351 	(obj:0)
STE(5,54)                            7726.49979777768 	(obj:0)
STE(5,55)                             4409.9999999947 	(obj:0)
STE(5,56)                            6068.24989888887 	(obj:0)
STE(5,57)                             6068.2498988834 	(obj:0)
STE(5,58)                            7726.49979777246 	(obj:0)
STE(5,59)                            6068.24989888357 	(obj:0)
STE(5,60)                            7726.49979777239 	(obj:0)
STE(5,61)                             7726.4997977724 	(obj:0)
STE(5,62)                            9384.74969666657 	(obj:0)
STE(6,63)                           -1824.74969667182 	(obj:0)
STE(6,64)                            -166.49979778301 	(obj:0)
STE(6,65)                           -166.499797783002 	(obj:0)
STE(6,66)                            1491.75010110581 	(obj:0)
STE(6,67)                           -166.499797782991 	(obj:0)
STE(6,68)                            1491.75010110582 	(obj:0)
STE(6,69)                            1491.75010111118 	(obj:0)
STE(6,70)                            3149.99999999999 	(obj:0)
STE(6,71)                           -166.499797782886 	(obj:0)
STE(6,72)                            1491.75010110592 	(obj:0)
STE(6,73)                            1491.75010110593 	(obj:0)
STE(6,74)                            3149.99999999475 	(obj:0)
STE(6,75)                            1491.75010110594 	(obj:0)
STE(6,76)                            3149.99999999475 	(obj:0)
STE(6,77)                                        3150 	(obj:0)
STE(6,78)                            4808.24989888357 	(obj:0)
STE(6,79)                           -166.499797782926 	(obj:0)
STE(6,80)                            1491.75010110588 	(obj:0)
STE(6,81)                            1491.75010111125 	(obj:0)
STE(6,82)                            3150.00000000006 	(obj:0)
STE(6,83)                             1491.7501011059 	(obj:0)
STE(6,84)                            3149.99999999471 	(obj:0)
STE(6,85)                            3150.00000000008 	(obj:0)
STE(6,86)                            4808.24989888889 	(obj:0)
STE(6,87)                            1491.75010110594 	(obj:0)
STE(6,88)                            3149.99999999475 	(obj:0)
STE(6,89)                            3149.99999999476 	(obj:0)
STE(6,90)                            4808.24989888357 	(obj:0)
STE(6,91)                            3149.99999999477 	(obj:0)
STE(6,92)                            4808.24989888358 	(obj:0)
STE(6,93)                            4808.24989888895 	(obj:0)
STE(6,94)                            6466.49979777776 	(obj:0)
STE(6,95)                           -166.499797783003 	(obj:0)
STE(6,96)                            1491.75010110581 	(obj:0)
STE(6,97)                            1491.75010111117 	(obj:0)
STE(6,98)                            3149.99999999998 	(obj:0)
STE(6,99)                            1491.75010110583 	(obj:0)
STE(6,100)                           3149.99999999464 	(obj:0)
STE(6,101)                                       3150 	(obj:0)
STE(6,102)                           4808.24989888881 	(obj:0)
STE(6,103)                           1491.75010110587 	(obj:0)
STE(6,104)                           3149.99999999468 	(obj:0)
STE(6,105)                           3149.99999999468 	(obj:0)
STE(6,106)                            4808.2498988835 	(obj:0)
STE(6,107)                            3149.9999999947 	(obj:0)
STE(6,108)                           4808.24989888351 	(obj:0)
STE(6,109)                           4808.24989888887 	(obj:0)
STE(6,110)                           6466.49979777768 	(obj:0)
STE(6,111)                           1491.75010110589 	(obj:0)
STE(6,112)                                       3150 	(obj:0)
STE(6,113)                           3150.00000000006 	(obj:0)
STE(6,114)                           4808.24989888887 	(obj:0)
STE(6,115)                           3149.99999999459 	(obj:0)
STE(6,116)                           4808.24989888341 	(obj:0)
STE(6,117)                           4808.24989888365 	(obj:0)
STE(6,118)                           6466.49979777246 	(obj:0)
STE(6,119)                           3149.99999999476 	(obj:0)
STE(6,120)                           4808.24989888357 	(obj:0)
STE(6,121)                           4808.24989888358 	(obj:0)
STE(6,122)                           6466.49979777239 	(obj:0)
STE(6,123)                           4808.24989888359 	(obj:0)
STE(6,124)                            6466.4997977724 	(obj:0)
STE(6,125)                           6466.49979777776 	(obj:0)
STE(6,126)                           8124.74969666657 	(obj:0)
y1(6,99)                             1492.42490899993 	(obj:0)
y1(6,101)                            1492.42490899993 	(obj:0)
y1(6,103)                            1492.42490899993 	(obj:0)
y1(6,105)                            1492.42490899993 	(obj:0)
y1(6,107)                            1492.42490899993 	(obj:0)
y1(6,109)                            1492.42490899993 	(obj:0)
y1(6,111)                            1492.42490899993 	(obj:0)
y1(6,112)                        -4.77069988846779e-009 	(obj:0)
y1(6,113)                            1492.42490899993 	(obj:0)
y1(6,115)                            1492.42490899993 	(obj:0)
y1(6,117)                            1492.42490899993 	(obj:0)
y1(6,119)                            1492.42490899993 	(obj:0)
y1(6,121)                            1492.42490899993 	(obj:0)
y1(6,123)                            1492.42490899993 	(obj:0)
y1(6,125)                            1492.42490899993 	(obj:0)
BG(5)                                4196.29249898449 	(obj:10)
BG(6)                                1149.93060391279 	(obj:10)
AVE(1)                               3259.55177567504 	(obj:0)
AVE(2)                               3259.55588804169 	(obj:0)
AVE(3)                               3579.36165209166 	(obj:0)
AVE(4)                               3579.36576445831 	(obj:0)
WB(5)                                3472.77007794174 	(obj:0)
AVE(5)                               3472.77007794174 	(obj:0)
AVE(6)                                3046.3618950668 	(obj:0)
WG(1)                                3259.55177567504 	(obj:10)
WG(2)                                3259.55588804169 	(obj:10)
WG(3)                                3579.36165209166 	(obj:10)
WG(4)                                3579.36576445831 	(obj:10)
WG(6)                                 3046.3618950668 	(obj:10)
BG(1)                                996.664471263796 	(obj:10)
BG(2)                                936.736610937901 	(obj:10)
BG(3)                                616.930846887932 	(obj:10)
BG(4)                                616.926734521282 	(obj:10)
y1(1,1)                              1551.15018200002 	(obj:0)
y1(1,2)                              58.7252730000857 	(obj:0)
y1(2,3)                                   1492.424909 	(obj:0)
y1(2,5)                                   1492.424909 	(obj:0)
y1(3,7)                              1492.42490899998 	(obj:0)
y1(3,9)                              1492.42490899998 	(obj:0)
y1(3,11)                             1492.42490899998 	(obj:0)
y1(3,13)                             1492.42490899998 	(obj:0)
y1(4,15)                             1492.42490899994 	(obj:0)
y1(4,17)                             1492.42490899994 	(obj:0)
y1(4,19)                             1492.42490899994 	(obj:0)
y1(4,21)                             1492.42490899994 	(obj:0)
y1(4,23)                             1492.42490899994 	(obj:0)
y1(4,25)                             1492.42490899994 	(obj:0)
y1(4,27)                             1492.42490899994 	(obj:0)
y1(4,29)                             1492.42490899994 	(obj:0)
y1(5,31)                             1492.42490900476 	(obj:0)
y1(5,32)                         4.82214090880007e-009 	(obj:0)
y1(5,33)                             1492.42490900476 	(obj:0)
y1(5,35)                             1492.42490900476 	(obj:0)
y1(5,36)                         4.82214090880007e-009 	(obj:0)
y1(5,37)                             1492.42490900476 	(obj:0)
y1(5,38)                         4.82214090880007e-009 	(obj:0)
y1(5,39)                             1492.42490900476 	(obj:0)
y1(5,41)                             1492.42490900476 	(obj:0)
y1(5,43)                             1492.42490900476 	(obj:0)
y1(5,44)                         4.82214090880007e-009 	(obj:0)
y1(5,45)                             1492.42490900476 	(obj:0)
y1(5,47)                             1492.42490900476 	(obj:0)
y1(5,49)                             1492.42490900476 	(obj:0)
y1(5,51)                             1492.42490900476 	(obj:0)
y1(5,52)                         4.82214090880007e-009 	(obj:0)
y1(5,53)                             1492.42490900476 	(obj:0)
y1(5,55)                             1492.42490900476 	(obj:0)
y1(5,57)                             1492.42490900476 	(obj:0)
y1(5,58)                         4.65661287307739e-009 	(obj:0)
y1(5,59)                             1492.42490900476 	(obj:0)
y1(5,60)                         4.82214090880007e-009 	(obj:0)
y1(5,61)                             1492.42490900476 	(obj:0)
y1(6,63)                             1492.42490899993 	(obj:0)
y1(6,65)                             1492.42490899993 	(obj:0)
y1(6,67)                             1492.42490899993 	(obj:0)
y1(6,69)                             1492.42490899993 	(obj:0)
y1(6,71)                             1492.42490899993 	(obj:0)
y1(6,73)                             1492.42490899993 	(obj:0)
y1(6,75)                             1492.42490899993 	(obj:0)
y1(6,77)                             1492.42490899521 	(obj:0)
y1(6,79)                             1492.42490899993 	(obj:0)
y1(6,81)                             1492.42490899993 	(obj:0)
y1(6,83)                             1492.42490899993 	(obj:0)
y1(6,85)                             1492.42490899993 	(obj:0)
y1(6,87)                             1492.42490899993 	(obj:0)
y1(6,89)                             1492.42490899993 	(obj:0)
y1(6,91)                             1492.42490899993 	(obj:0)
y1(6,93)                             1492.42490899993 	(obj:0)
y1(6,95)                             1492.42490899993 	(obj:0)
y1(6,97)                             1492.42490899993 	(obj:0)
